container_length = 60;
container_width = 36;
container_height = 19;
n = 8;
boxes = [|4, 3, 2, 29
         |4, 4, 1, 37
         |3, 3, 2, 34
         |5, 3, 4, 19
         |8, 2, 2, 16
         |4, 3, 3, 17
         |9, 2, 2, 25
         |2, 2, 1, 23|];
